(declare-const X String)
; to\s+User-Agent\x3Acid=tb\x2eCookie\x3A\x2Fimages\x2Fnocache\x2Ftr\x2Fgca\x2Fm\.gif\?
(assert (str.in_re X (re.++ (str.to_re "to") (re.+ (re.union (str.to_re " ") (str.to_re "\u{9}") (str.to_re "\u{a}") (str.to_re "\u{c}") (str.to_re "\u{d}"))) (str.to_re "User-Agent:cid=tb.Cookie:/images/nocache/tr/gca/m.gif?\u{a}"))))
; /<\s*col[^>]*width\s*=\s*[\x22\x27]?\d{7}/i
(assert (str.in_re X (re.++ (str.to_re "/<") (re.* (re.union (str.to_re " ") (str.to_re "\u{9}") (str.to_re "\u{a}") (str.to_re "\u{c}") (str.to_re "\u{d}"))) (str.to_re "col") (re.* (re.comp (str.to_re ">"))) (str.to_re "width") (re.* (re.union (str.to_re " ") (str.to_re "\u{9}") (str.to_re "\u{a}") (str.to_re "\u{c}") (str.to_re "\u{d}"))) (str.to_re "=") (re.* (re.union (str.to_re " ") (str.to_re "\u{9}") (str.to_re "\u{a}") (str.to_re "\u{c}") (str.to_re "\u{d}"))) (re.opt (re.union (str.to_re "\u{22}") (str.to_re "'"))) ((_ re.loop 7 7) (re.range "0" "9")) (str.to_re "/i\u{a}"))))
(check-sat)

(exit)
